# PREREQUISITES:
#
#     You must use moltemplate.sh to create 3 files:
#        system.data  system.in.init  system.in.settings
#     (Follow the instructions in README_setup.sh, 
#      or run the file as a script using ./README_setup.sh)

# ------------------------------- Initialization Section --------------------

units real
atom_style full
pair_style lj/class2/coul/cut 15.0
bond_style class2
angle_style class2
dihedral_style class2
improper_style class2


# ------------------------------- Atom Definition Section -------------------

read_data       "pre_mol.data" extra/bond/per/atom 1 extra/angle/per/atom 12 extra/dihedral/per/atom 12 extra/improper/per/atom 12 extra/special/per/atom 12

include calc.pram

# ------------------------------- OPT Section -------------------------------
minimize 1.0e-5 1.0e-7 100000 400000
# ------------------------------- Run Section -------------------------------

molecule 	pre pre-mol.data
molecule	post post-mol.data

fix		fxrct all bond/react stabilization yes statted_grp .03 &
		 react rxn1 all 100 0.0 10.0 pre post semi.map stabilize_steps 100 &

fix 		1 statted_grp_REACT nvt temp 300.0 300.0 100

fix 		4 bond_react_MASTER_group temp/rescale 1 300.0 300.0 1 1



thermo_style custom step temp f_fxrct[1]
thermo          100
dump myDump all custom 1000 dump.pos id type x y z mol element


run 200000

