
# Masses

mass	1	12.01115	#	c
mass	2	12.01115	#	c1
mass	3	12.01115	#	c3h
mass	4	1.00797	#	hc
mass	5	15.99940	#	o3e
mass	6	15.99940	#	oc

# Potentials

pair_coeff	1	1	0.05400	4.01000	#	c,c
pair_coeff	2	2	0.05400	4.01000	#	c1,c1
pair_coeff	3	3	0.05400	4.01000	#	c3h,c3h
pair_coeff	4	4	0.02000	2.99500	#	hc,hc
pair_coeff	5	5	0.24000	3.53500	#	o3e,o3e
pair_coeff	6	6	0.24000	3.53500	#	oc,oc

# Bond Coeffs

bond_coeff	1	1.53000	299.67000	-501.77000	679.81000	#	c,c
bond_coeff	2	1.53000	299.67000	-501.77000	679.81000	#	c,c1
bond_coeff	3	1.53000	299.67000	-501.77000	679.81000	#	c,c3h
bond_coeff	4	1.10100	345.00000	-691.89000	844.60000	#	c,hc
bond_coeff	5	1.42000	400.39540	-835.19510	1313.01420	#	c,o3e
bond_coeff	6	1.42000	400.39540	-835.19510	1313.01420	#	c,oc
bond_coeff	7	1.10100	345.00000	-691.89000	844.60000	#	c1,hc
bond_coeff	8	1.42000	400.39540	-835.19510	1313.01420	#	c1,oc
bond_coeff	9	1.10100	345.00000	-691.89000	844.60000	#	c3h,hc
bond_coeff	10	1.42000	400.39540	-835.19510	1313.01420	#	c3h,o3e

# Angle Coeffs

angle_coeff	1	112.67000	39.51600	-7.44300	-9.55830	#	c,c,c
angle_coeff	2	110.77000	41.45300	-10.60400	5.12900	#	c,c,hc
angle_coeff	3	111.27000	54.53810	-8.36420	-13.08380	#	c,c,oc
angle_coeff	4	112.67000	39.51600	-7.44300	-9.55830	#	c,c1,c
angle_coeff	5	110.77000	41.45300	-10.60400	5.12900	#	c,c1,hc
angle_coeff	6	111.27000	54.53810	-8.36420	-13.08380	#	c,c1,oc
angle_coeff	7	112.67000	39.51600	-7.44300	-9.55830	#	c,c3h,c
angle_coeff	8	110.77000	41.45300	-10.60400	5.12900	#	c,c3h,hc
angle_coeff	9	111.27000	54.53810	-8.36420	-13.08380	#	c,c3h,o3e
angle_coeff	10	104.50000	35.74540	-10.00670	-6.27290	#	c,o3e,c3h
angle_coeff	11	104.50000	35.74540	-10.00670	-6.27290	#	c,oc,c
angle_coeff	12	104.50000	35.74540	-10.00670	-6.27290	#	c,oc,c1
angle_coeff	13	110.77000	41.45300	-10.60400	5.12900	#	c1,c,hc
angle_coeff	14	110.77000	41.45300	-10.60400	5.12900	#	c3h,c,hc
angle_coeff	15	111.27000	54.53810	-8.36420	-13.08380	#	c3h,c,o3e
angle_coeff	16	111.27000	54.53810	-8.36420	-13.08380	#	c3h,c,oc
angle_coeff	17	107.66000	39.64100	-12.92100	-2.43180	#	hc,c,hc
angle_coeff	18	108.72800	58.54460	-10.80880	-12.40060	#	hc,c,o3e
angle_coeff	19	108.72800	58.54460	-10.80880	-12.40060	#	hc,c,oc
angle_coeff	20	108.72800	58.54460	-10.80880	-12.40060	#	hc,c1,oc
angle_coeff	21	108.72800	58.54460	-10.80880	-12.40060	#	hc,c3h,o3e
angle_coeff	22	111.27000	54.53810	-8.36420	-13.08380	#	c1,c,oc

# BondBond Coeffs

angle_coeff	1	bb	0.00000	1.53000	1.53000	#	c,c,c
angle_coeff	2	bb	3.38720	1.53000	1.10100	#	c,c,hc
angle_coeff	3	bb	11.43180	1.53000	1.42000	#	c,c,oc
angle_coeff	4	bb	0.00000	1.53000	1.53000	#	c,c1,c
angle_coeff	5	bb	3.38720	1.53000	1.10100	#	c,c1,hc
angle_coeff	6	bb	11.43180	1.53000	1.42000	#	c,c1,oc
angle_coeff	7	bb	0.00000	1.53000	1.53000	#	c,c3h,c
angle_coeff	8	bb	3.38720	1.53000	1.10100	#	c,c3h,hc
angle_coeff	9	bb	11.43180	1.53000	1.42000	#	c,c3h,o3e
angle_coeff	10	bb	-7.11310	1.42000	1.42000	#	c,o3e,c3h
angle_coeff	11	bb	-7.11310	1.42000	1.42000	#	c,oc,c
angle_coeff	12	bb	-7.11310	1.42000	1.42000	#	c,oc,c1
angle_coeff	13	bb	3.38720	1.53000	1.10100	#	c1,c,hc
angle_coeff	14	bb	3.38720	1.53000	1.10100	#	c3h,c,hc
angle_coeff	15	bb	11.43180	1.53000	1.42000	#	c3h,c,o3e
angle_coeff	16	bb	11.43180	1.53000	1.42000	#	c3h,c,oc
angle_coeff	17	bb	5.33160	1.10100	1.10100	#	hc,c,hc
angle_coeff	18	bb	23.19790	1.10100	1.42000	#	hc,c,o3e
angle_coeff	19	bb	23.19790	1.10100	1.42000	#	hc,c,oc
angle_coeff	20	bb	23.19790	1.10100	1.42000	#	hc,c1,oc
angle_coeff	21	bb	23.19790	1.10100	1.42000	#	hc,c3h,o3e
angle_coeff	22	bb	11.43180	1.53000	1.42000	#	c1,c,oc

# BondAngle Coeffs

angle_coeff	1	ba	8.01600	8.01600	1.53000	1.53000	#	c,c,c
angle_coeff	2	ba	20.75400	11.42100	1.53000	1.10100	#	c,c,hc
angle_coeff	3	ba	2.68680	20.40330	1.53000	1.42000	#	c,c,oc
angle_coeff	4	ba	8.01600	8.01600	1.53000	1.53000	#	c,c1,c
angle_coeff	5	ba	20.75400	11.42100	1.53000	1.10100	#	c,c1,hc
angle_coeff	6	ba	2.68680	20.40330	1.53000	1.42000	#	c,c1,oc
angle_coeff	7	ba	8.01600	8.01600	1.53000	1.53000	#	c,c3h,c
angle_coeff	8	ba	20.75400	11.42100	1.53000	1.10100	#	c,c3h,hc
angle_coeff	9	ba	2.68680	20.40330	1.53000	1.42000	#	c,c3h,o3e
angle_coeff	10	ba	-2.81120	-2.81120	1.42000	1.42000	#	c,o3e,c3h
angle_coeff	11	ba	-2.81120	-2.81120	1.42000	1.42000	#	c,oc,c
angle_coeff	12	ba	-2.81120	-2.81120	1.42000	1.42000	#	c,oc,c1
angle_coeff	13	ba	11.42100	20.75400	1.53000	1.10100	#	c1,c,hc
angle_coeff	14	ba	11.42100	20.75400	1.53000	1.10100	#	c3h,c,hc
angle_coeff	15	ba	2.68680	20.40330	1.53000	1.42000	#	c3h,c,o3e
angle_coeff	16	ba	20.40330	2.68680	1.53000	1.42000	#	c3h,c,oc
angle_coeff	17	ba	18.10300	18.10300	1.10100	1.10100	#	hc,c,hc
angle_coeff	18	ba	4.61890	55.32700	1.10100	1.42000	#	hc,c,o3e
angle_coeff	19	ba	4.61890	55.32700	1.10100	1.42000	#	hc,c,oc
angle_coeff	20	ba	4.61890	55.32700	1.10100	1.42000	#	hc,c1,oc
angle_coeff	21	ba	4.61890	55.32700	1.10100	1.42000	#	hc,c3h,o3e
angle_coeff	22	ba	2.68680	20.40330	1.53000	1.42000	#	c1,c,oc

# Dihedral Coeffs

dihedral_coeff	1	0.00000	0.00000	0.03160	0.00000	-0.16810	0.00000	#	c,c,c,hc
dihedral_coeff	2	0.71370	0.00000	0.26600	0.00000	-0.25450	0.00000	#	c,c,c,oc
dihedral_coeff	3	-0.52030	0.00000	-0.30280	0.00000	-0.34500	0.00000	#	c,c,oc,c
dihedral_coeff	4	-0.52030	0.00000	-0.30280	0.00000	-0.34500	0.00000	#	c,c,oc,c1
dihedral_coeff	5	0.00000	0.00000	0.03160	0.00000	-0.16810	0.00000	#	c,c1,c,hc
dihedral_coeff	6	-0.52030	0.00000	-0.30280	0.00000	-0.34500	0.00000	#	c,c1,oc,c
dihedral_coeff	7	0.00000	0.00000	0.03160	0.00000	-0.16810	0.00000	#	c,c3h,c,hc
dihedral_coeff	8	0.71370	0.00000	0.26600	0.00000	-0.25450	0.00000	#	c,c3h,c,o3e
dihedral_coeff	9	0.71370	0.00000	0.26600	0.00000	-0.25450	0.00000	#	c,c3h,c,oc
dihedral_coeff	10	-0.52030	0.00000	-0.30280	0.00000	-0.34500	0.00000	#	c,c3h,o3e,c
dihedral_coeff	11	0.53020	0.00000	0.00000	0.00000	-0.39660	0.00000	#	c,o3e,c3h,hc
dihedral_coeff	12	-0.52030	0.00000	-0.30280	0.00000	-0.34500	0.00000	#	c,oc,c,c3h
dihedral_coeff	13	0.53020	0.00000	0.00000	0.00000	-0.39660	0.00000	#	c,oc,c,hc
dihedral_coeff	14	0.53020	0.00000	0.00000	0.00000	-0.39660	0.00000	#	c,oc,c1,hc
dihedral_coeff	15	0.53020	0.00000	0.00000	0.00000	-0.39660	0.00000	#	c1,oc,c,hc
dihedral_coeff	16	0.53020	0.00000	0.00000	0.00000	-0.39660	0.00000	#	c3h,o3e,c,hc
dihedral_coeff	17	-0.14320	0.00000	0.06170	0.00000	-0.10830	0.00000	#	hc,c,c,hc
dihedral_coeff	18	-0.14350	0.00000	0.25300	0.00000	-0.09050	0.00000	#	hc,c,c,oc
dihedral_coeff	19	-0.14320	0.00000	0.06170	0.00000	-0.10830	0.00000	#	hc,c,c1,hc
dihedral_coeff	20	-0.14350	0.00000	0.25300	0.00000	-0.09050	0.00000	#	hc,c,c1,oc
dihedral_coeff	21	-0.14320	0.00000	0.06170	0.00000	-0.10830	0.00000	#	hc,c,c3h,hc
dihedral_coeff	22	-0.14350	0.00000	0.25300	0.00000	-0.09050	0.00000	#	hc,c,c3h,o3e
dihedral_coeff	23	-0.14350	0.00000	0.25300	0.00000	-0.09050	0.00000	#	hc,c3h,c,o3e
dihedral_coeff	24	-0.14350	0.00000	0.25300	0.00000	-0.09050	0.00000	#	hc,c3h,c,oc
dihedral_coeff	25	-0.18200	0.00000	-0.10840	0.00000	-0.70470	0.00000	#	o3e,c3h,c,oc
dihedral_coeff	26	0.71370	0.00000	0.26600	0.00000	-0.25450	0.00000	#	c,c1,c,oc
dihedral_coeff	27	-0.52030	0.00000	-0.30280	0.00000	-0.34500	0.00000	#	c,oc,c,c1
dihedral_coeff	28	-0.52030	0.00000	-0.30280	0.00000	-0.34500	0.00000	#	c1,c,oc,c1
dihedral_coeff	29	-0.14350	0.00000	0.25300	0.00000	-0.09050	0.00000	#	hc,c1,c,oc
dihedral_coeff	30	-0.18200	0.00000	-0.10840	0.00000	-0.70470	0.00000	#	oc,c,c1,oc

# MiddleBondTorsion Coeffs

dihedral_coeff	1	mbt	-14.87900	-3.65810	-0.31380	1.53000	#	c,c,c,hc
dihedral_coeff	2	mbt	-21.88420	-7.67640	-0.68680	1.53000	#	c,c,c,oc
dihedral_coeff	3	mbt	-5.92880	-2.70070	-0.31750	1.42000	#	c,c,oc,c
dihedral_coeff	4	mbt	-5.92880	-2.70070	-0.31750	1.42000	#	c,c,oc,c1
dihedral_coeff	5	mbt	-14.87900	-3.65810	-0.31380	1.53000	#	c,c1,c,hc
dihedral_coeff	6	mbt	-5.92880	-2.70070	-0.31750	1.42000	#	c,c1,oc,c
dihedral_coeff	7	mbt	-14.87900	-3.65810	-0.31380	1.53000	#	c,c3h,c,hc
dihedral_coeff	8	mbt	-21.88420	-7.67640	-0.68680	1.53000	#	c,c3h,c,o3e
dihedral_coeff	9	mbt	-21.88420	-7.67640	-0.68680	1.53000	#	c,c3h,c,oc
dihedral_coeff	10	mbt	-5.92880	-2.70070	-0.31750	1.42000	#	c,c3h,o3e,c
dihedral_coeff	11	mbt	-6.80070	-4.65460	-1.41010	1.42000	#	c,o3e,c3h,hc
dihedral_coeff	12	mbt	-5.92880	-2.70070	-0.31750	1.42000	#	c,oc,c,c3h
dihedral_coeff	13	mbt	-6.80070	-4.65460	-1.41010	1.42000	#	c,oc,c,hc
dihedral_coeff	14	mbt	-6.80070	-4.65460	-1.41010	1.42000	#	c,oc,c1,hc
dihedral_coeff	15	mbt	-6.80070	-4.65460	-1.41010	1.42000	#	c1,oc,c,hc
dihedral_coeff	16	mbt	-6.80070	-4.65460	-1.41010	1.42000	#	c3h,o3e,c,hc
dihedral_coeff	17	mbt	-14.26100	-0.53220	-0.48640	1.53000	#	hc,c,c,hc
dihedral_coeff	18	mbt	-16.79750	-1.22960	-0.27500	1.53000	#	hc,c,c,oc
dihedral_coeff	19	mbt	-14.26100	-0.53220	-0.48640	1.53000	#	hc,c,c1,hc
dihedral_coeff	20	mbt	-16.79750	-1.22960	-0.27500	1.53000	#	hc,c,c1,oc
dihedral_coeff	21	mbt	-14.26100	-0.53220	-0.48640	1.53000	#	hc,c,c3h,hc
dihedral_coeff	22	mbt	-16.79750	-1.22960	-0.27500	1.53000	#	hc,c,c3h,o3e
dihedral_coeff	23	mbt	-16.79750	-1.22960	-0.27500	1.53000	#	hc,c3h,c,o3e
dihedral_coeff	24	mbt	-16.79750	-1.22960	-0.27500	1.53000	#	hc,c3h,c,oc
dihedral_coeff	25	mbt	-17.25850	-3.61570	-0.83640	1.53000	#	o3e,c3h,c,oc
dihedral_coeff	26	mbt	-21.88420	-7.67640	-0.68680	1.53000	#	c,c1,c,oc
dihedral_coeff	27	mbt	-5.92880	-2.70070	-0.31750	1.42000	#	c,oc,c,c1
dihedral_coeff	28	mbt	-5.92880	-2.70070	-0.31750	1.42000	#	c1,c,oc,c1
dihedral_coeff	29	mbt	-16.79750	-1.22960	-0.27500	1.53000	#	hc,c1,c,oc
dihedral_coeff	30	mbt	-17.25850	-3.61570	-0.83640	1.53000	#	oc,c,c1,oc

# EndBondTorsion Coeffs

dihedral_coeff	1	ebt	0.24860	0.24220	-0.09250	0.08140	0.05910	0.22190	1.53000	1.10100	#	c,c,c,hc
dihedral_coeff	2	ebt	-0.31900	0.44110	-0.71740	1.15380	0.84090	-0.91380	1.53000	1.42000	#	c,c,c,oc
dihedral_coeff	3	ebt	-0.24560	1.05170	-0.77950	0.47410	1.26350	0.55760	1.53000	1.42000	#	c,c,oc,c
dihedral_coeff	4	ebt	-0.24560	1.05170	-0.77950	0.47410	1.26350	0.55760	1.53000	1.42000	#	c,c,oc,c1
dihedral_coeff	5	ebt	0.24860	0.24220	-0.09250	0.08140	0.05910	0.22190	1.53000	1.10100	#	c,c1,c,hc
dihedral_coeff	6	ebt	-0.24560	1.05170	-0.77950	0.47410	1.26350	0.55760	1.53000	1.42000	#	c,c1,oc,c
dihedral_coeff	7	ebt	0.24860	0.24220	-0.09250	0.08140	0.05910	0.22190	1.53000	1.10100	#	c,c3h,c,hc
dihedral_coeff	8	ebt	-0.31900	0.44110	-0.71740	1.15380	0.84090	-0.91380	1.53000	1.42000	#	c,c3h,c,o3e
dihedral_coeff	9	ebt	-0.31900	0.44110	-0.71740	1.15380	0.84090	-0.91380	1.53000	1.42000	#	c,c3h,c,oc
dihedral_coeff	10	ebt	-0.24560	1.05170	-0.77950	0.47410	1.26350	0.55760	1.53000	1.42000	#	c,c3h,o3e,c
dihedral_coeff	11	ebt	-0.16200	0.15640	-1.14080	-0.60540	1.33390	0.96480	1.42000	1.10100	#	c,o3e,c3h,hc
dihedral_coeff	12	ebt	0.47410	1.26350	0.55760	-0.24560	1.05170	-0.77950	1.42000	1.53000	#	c,oc,c,c3h
dihedral_coeff	13	ebt	-0.16200	0.15640	-1.14080	-0.60540	1.33390	0.96480	1.42000	1.10100	#	c,oc,c,hc
dihedral_coeff	14	ebt	-0.16200	0.15640	-1.14080	-0.60540	1.33390	0.96480	1.42000	1.10100	#	c,oc,c1,hc
dihedral_coeff	15	ebt	-0.60540	1.33390	0.96480	-0.16200	0.15640	-1.14080	1.42000	1.10100	#	c1,oc,c,hc
dihedral_coeff	16	ebt	-0.60540	1.33390	0.96480	-0.16200	0.15640	-1.14080	1.42000	1.10100	#	c3h,o3e,c,hc
dihedral_coeff	17	ebt	0.21300	0.31200	0.07770	0.21300	0.31200	0.07770	1.10100	1.10100	#	hc,c,c,hc
dihedral_coeff	18	ebt	0.96810	0.95510	0.04360	0.59030	0.66690	0.85840	1.10100	1.42000	#	hc,c,c,oc
dihedral_coeff	19	ebt	0.21300	0.31200	0.07770	0.21300	0.31200	0.07770	1.10100	1.10100	#	hc,c,c1,hc
dihedral_coeff	20	ebt	0.96810	0.95510	0.04360	0.59030	0.66690	0.85840	1.10100	1.42000	#	hc,c,c1,oc
dihedral_coeff	21	ebt	0.21300	0.31200	0.07770	0.21300	0.31200	0.07770	1.10100	1.10100	#	hc,c,c3h,hc
dihedral_coeff	22	ebt	0.96810	0.95510	0.04360	0.59030	0.66690	0.85840	1.10100	1.42000	#	hc,c,c3h,o3e
dihedral_coeff	23	ebt	0.96810	0.95510	0.04360	0.59030	0.66690	0.85840	1.10100	1.42000	#	hc,c3h,c,o3e
dihedral_coeff	24	ebt	0.96810	0.95510	0.04360	0.59030	0.66690	0.85840	1.10100	1.42000	#	hc,c3h,c,oc
dihedral_coeff	25	ebt	1.01650	0.75530	-0.46090	1.01650	0.75530	-0.46090	1.42000	1.42000	#	o3e,c3h,c,oc
dihedral_coeff	26	ebt	-0.31900	0.44110	-0.71740	1.15380	0.84090	-0.91380	1.53000	1.42000	#	c,c1,c,oc
dihedral_coeff	27	ebt	0.47410	1.26350	0.55760	-0.24560	1.05170	-0.77950	1.42000	1.53000	#	c,oc,c,c1
dihedral_coeff	28	ebt	-0.24560	1.05170	-0.77950	0.47410	1.26350	0.55760	1.53000	1.42000	#	c1,c,oc,c1
dihedral_coeff	29	ebt	0.96810	0.95510	0.04360	0.59030	0.66690	0.85840	1.10100	1.42000	#	hc,c1,c,oc
dihedral_coeff	30	ebt	1.01650	0.75530	-0.46090	1.01650	0.75530	-0.46090	1.42000	1.42000	#	oc,c,c1,oc

# AngleTorsion Coeffs

dihedral_coeff	1	at	-0.24540	0.00000	-0.11360	0.31130	0.45160	-0.19880	112.67000	110.77000	#	c,c,c,hc
dihedral_coeff	2	at	0.56230	-0.30410	-0.40150	0.96720	-0.75660	-1.23310	112.67000	111.27000	#	c,c,c,oc
dihedral_coeff	3	at	-2.74660	1.48770	-0.89550	0.56760	0.94500	0.07030	111.27000	104.50000	#	c,c,oc,c
dihedral_coeff	4	at	-2.74660	1.48770	-0.89550	0.56760	0.94500	0.07030	111.27000	104.50000	#	c,c,oc,c1
dihedral_coeff	5	at	-0.24540	0.00000	-0.11360	0.31130	0.45160	-0.19880	112.67000	110.77000	#	c,c1,c,hc
dihedral_coeff	6	at	-2.74660	1.48770	-0.89550	0.56760	0.94500	0.07030	111.27000	104.50000	#	c,c1,oc,c
dihedral_coeff	7	at	-0.24540	0.00000	-0.11360	0.31130	0.45160	-0.19880	112.67000	110.77000	#	c,c3h,c,hc
dihedral_coeff	8	at	0.56230	-0.30410	-0.40150	0.96720	-0.75660	-1.23310	112.67000	111.27000	#	c,c3h,c,o3e
dihedral_coeff	9	at	0.56230	-0.30410	-0.40150	0.96720	-0.75660	-1.23310	112.67000	111.27000	#	c,c3h,c,oc
dihedral_coeff	10	at	-2.74660	1.48770	-0.89550	0.56760	0.94500	0.07030	111.27000	104.50000	#	c,c3h,o3e,c
dihedral_coeff	11	at	-0.77770	0.43400	-0.66530	-1.82340	1.63930	0.51440	104.50000	108.72800	#	c,o3e,c3h,hc
dihedral_coeff	12	at	0.56760	0.94500	0.07030	-2.74660	1.48770	-0.89550	104.50000	111.27000	#	c,oc,c,c3h
dihedral_coeff	13	at	-0.77770	0.43400	-0.66530	-1.82340	1.63930	0.51440	104.50000	108.72800	#	c,oc,c,hc
dihedral_coeff	14	at	-0.77770	0.43400	-0.66530	-1.82340	1.63930	0.51440	104.50000	108.72800	#	c,oc,c1,hc
dihedral_coeff	15	at	-1.82340	1.63930	0.51440	-0.77770	0.43400	-0.66530	104.50000	108.72800	#	c1,oc,c,hc
dihedral_coeff	16	at	-1.82340	1.63930	0.51440	-0.77770	0.43400	-0.66530	104.50000	108.72800	#	c3h,o3e,c,hc
dihedral_coeff	17	at	-0.80850	0.55690	-0.24660	-0.80850	0.55690	-0.24660	110.77000	110.77000	#	hc,c,c,hc
dihedral_coeff	18	at	2.36680	2.49200	-1.01220	-0.18920	0.49180	0.72730	110.77000	111.27000	#	hc,c,c,oc
dihedral_coeff	19	at	-0.80850	0.55690	-0.24660	-0.80850	0.55690	-0.24660	110.77000	110.77000	#	hc,c,c1,hc
dihedral_coeff	20	at	2.36680	2.49200	-1.01220	-0.18920	0.49180	0.72730	110.77000	111.27000	#	hc,c,c1,oc
dihedral_coeff	21	at	-0.80850	0.55690	-0.24660	-0.80850	0.55690	-0.24660	110.77000	110.77000	#	hc,c,c3h,hc
dihedral_coeff	22	at	2.36680	2.49200	-1.01220	-0.18920	0.49180	0.72730	110.77000	111.27000	#	hc,c,c3h,o3e
dihedral_coeff	23	at	2.36680	2.49200	-1.01220	-0.18920	0.49180	0.72730	110.77000	111.27000	#	hc,c3h,c,o3e
dihedral_coeff	24	at	2.36680	2.49200	-1.01220	-0.18920	0.49180	0.72730	110.77000	111.27000	#	hc,c3h,c,oc
dihedral_coeff	25	at	0.55110	0.97370	-0.66730	0.55110	0.97370	-0.66730	111.27000	111.27000	#	o3e,c3h,c,oc
dihedral_coeff	26	at	0.56230	-0.30410	-0.40150	0.96720	-0.75660	-1.23310	112.67000	111.27000	#	c,c1,c,oc
dihedral_coeff	27	at	0.56760	0.94500	0.07030	-2.74660	1.48770	-0.89550	104.50000	111.27000	#	c,oc,c,c1
dihedral_coeff	28	at	-2.74660	1.48770	-0.89550	0.56760	0.94500	0.07030	111.27000	104.50000	#	c1,c,oc,c1
dihedral_coeff	29	at	2.36680	2.49200	-1.01220	-0.18920	0.49180	0.72730	110.77000	111.27000	#	hc,c1,c,oc
dihedral_coeff	30	at	0.55110	0.97370	-0.66730	0.55110	0.97370	-0.66730	111.27000	111.27000	#	oc,c,c1,oc

# AngleAngleTorsion Coeffs

dihedral_coeff	1	aat	-16.16400	112.67000	110.77000	#	c,c,c,hc
dihedral_coeff	2	aat	-29.04200	112.67000	111.27000	#	c,c,c,oc
dihedral_coeff	3	aat	-19.00590	111.27000	104.50000	#	c,c,oc,c
dihedral_coeff	4	aat	-19.00590	111.27000	104.50000	#	c,c,oc,c1
dihedral_coeff	5	aat	-16.16400	112.67000	110.77000	#	c,c1,c,hc
dihedral_coeff	6	aat	-19.00590	111.27000	104.50000	#	c,c1,oc,c
dihedral_coeff	7	aat	-16.16400	112.67000	110.77000	#	c,c3h,c,hc
dihedral_coeff	8	aat	-29.04200	112.67000	111.27000	#	c,c3h,c,o3e
dihedral_coeff	9	aat	-29.04200	112.67000	111.27000	#	c,c3h,c,oc
dihedral_coeff	10	aat	-19.00590	111.27000	104.50000	#	c,c3h,o3e,c
dihedral_coeff	11	aat	-16.44380	104.50000	108.72800	#	c,o3e,c3h,hc
dihedral_coeff	12	aat	-19.00590	104.50000	111.27000	#	c,oc,c,c3h
dihedral_coeff	13	aat	-16.44380	104.50000	108.72800	#	c,oc,c,hc
dihedral_coeff	14	aat	-16.44380	104.50000	108.72800	#	c,oc,c1,hc
dihedral_coeff	15	aat	-16.44380	104.50000	108.72800	#	c1,oc,c,hc
dihedral_coeff	16	aat	-16.44380	104.50000	108.72800	#	c3h,o3e,c,hc
dihedral_coeff	17	aat	-12.56400	110.77000	110.77000	#	hc,c,c,hc
dihedral_coeff	18	aat	-20.20060	110.77000	111.27000	#	hc,c,c,oc
dihedral_coeff	19	aat	-12.56400	110.77000	110.77000	#	hc,c,c1,hc
dihedral_coeff	20	aat	-20.20060	110.77000	111.27000	#	hc,c,c1,oc
dihedral_coeff	21	aat	-12.56400	110.77000	110.77000	#	hc,c,c3h,hc
dihedral_coeff	22	aat	-20.20060	110.77000	111.27000	#	hc,c,c3h,o3e
dihedral_coeff	23	aat	-20.20060	110.77000	111.27000	#	hc,c3h,c,o3e
dihedral_coeff	24	aat	-20.20060	110.77000	111.27000	#	hc,c3h,c,oc
dihedral_coeff	25	aat	-14.04840	111.27000	111.27000	#	o3e,c3h,c,oc
dihedral_coeff	26	aat	-29.04200	112.67000	111.27000	#	c,c1,c,oc
dihedral_coeff	27	aat	-19.00590	104.50000	111.27000	#	c,oc,c,c1
dihedral_coeff	28	aat	-19.00590	111.27000	104.50000	#	c1,c,oc,c1
dihedral_coeff	29	aat	-20.20060	110.77000	111.27000	#	hc,c1,c,oc
dihedral_coeff	30	aat	-14.04840	111.27000	111.27000	#	oc,c,c1,oc

# BondBond13 Coeffs

dihedral_coeff	1	bb13	0.00000	1.53000	1.10100	#	c,c,c,hc
dihedral_coeff	2	bb13	0.00000	1.53000	1.42000	#	c,c,c,oc
dihedral_coeff	3	bb13	0.00000	1.53000	1.42000	#	c,c,oc,c
dihedral_coeff	4	bb13	0.00000	1.53000	1.42000	#	c,c,oc,c1
dihedral_coeff	5	bb13	0.00000	1.53000	1.10100	#	c,c1,c,hc
dihedral_coeff	6	bb13	0.00000	1.53000	1.42000	#	c,c1,oc,c
dihedral_coeff	7	bb13	0.00000	1.53000	1.10100	#	c,c3h,c,hc
dihedral_coeff	8	bb13	0.00000	1.53000	1.42000	#	c,c3h,c,o3e
dihedral_coeff	9	bb13	0.00000	1.53000	1.42000	#	c,c3h,c,oc
dihedral_coeff	10	bb13	0.00000	1.53000	1.42000	#	c,c3h,o3e,c
dihedral_coeff	11	bb13	0.00000	1.42000	1.10100	#	c,o3e,c3h,hc
dihedral_coeff	12	bb13	0.00000	1.42000	1.53000	#	c,oc,c,c3h
dihedral_coeff	13	bb13	0.00000	1.42000	1.10100	#	c,oc,c,hc
dihedral_coeff	14	bb13	0.00000	1.42000	1.10100	#	c,oc,c1,hc
dihedral_coeff	15	bb13	0.00000	1.42000	1.10100	#	c1,oc,c,hc
dihedral_coeff	16	bb13	0.00000	1.42000	1.10100	#	c3h,o3e,c,hc
dihedral_coeff	17	bb13	0.00000	1.10100	1.10100	#	hc,c,c,hc
dihedral_coeff	18	bb13	0.00000	1.10100	1.42000	#	hc,c,c,oc
dihedral_coeff	19	bb13	0.00000	1.10100	1.10100	#	hc,c,c1,hc
dihedral_coeff	20	bb13	0.00000	1.10100	1.42000	#	hc,c,c1,oc
dihedral_coeff	21	bb13	0.00000	1.10100	1.10100	#	hc,c,c3h,hc
dihedral_coeff	22	bb13	0.00000	1.10100	1.42000	#	hc,c,c3h,o3e
dihedral_coeff	23	bb13	0.00000	1.10100	1.42000	#	hc,c3h,c,o3e
dihedral_coeff	24	bb13	0.00000	1.10100	1.42000	#	hc,c3h,c,oc
dihedral_coeff	25	bb13	0.00000	1.42000	1.42000	#	o3e,c3h,c,oc
dihedral_coeff	26	bb13	0.00000	1.53000	1.42000	#	c,c1,c,oc
dihedral_coeff	27	bb13	0.00000	1.42000	1.53000	#	c,oc,c,c1
dihedral_coeff	28	bb13	0.00000	1.53000	1.42000	#	c1,c,oc,c1
dihedral_coeff	29	bb13	0.00000	1.10100	1.42000	#	hc,c1,c,oc
dihedral_coeff	30	bb13	0.00000	1.42000	1.42000	#	oc,c,c1,oc

# Improper Coeffs

improper_coeff	1	0.00000	0.00000	#	c,c,c,hc
improper_coeff	2	0.00000	0.00000	#	c,c,hc,hc
improper_coeff	3	0.00000	0.00000	#	c,c,hc,oc
improper_coeff	4	0.00000	0.00000	#	c,c,oc,hc
improper_coeff	5	0.00000	0.00000	#	c,c1,hc,hc
improper_coeff	6	0.00000	0.00000	#	c,c3h,hc,hc
improper_coeff	7	0.00000	0.00000	#	c,c3h,hc,o3e
improper_coeff	8	0.00000	0.00000	#	c,c3h,hc,oc
improper_coeff	9	0.00000	0.00000	#	c,hc,hc,hc
improper_coeff	10	0.00000	0.00000	#	c,hc,hc,o3e
improper_coeff	11	0.00000	0.00000	#	c,hc,hc,oc
improper_coeff	12	0.00000	0.00000	#	c1,c,c,hc
improper_coeff	13	0.00000	0.00000	#	c1,c,c,oc
improper_coeff	14	0.00000	0.00000	#	c1,c,hc,oc
improper_coeff	15	0.00000	0.00000	#	c1,c,oc,hc
improper_coeff	16	0.00000	0.00000	#	c3h,c,c,hc
improper_coeff	17	0.00000	0.00000	#	c3h,c,c,o3e
improper_coeff	18	0.00000	0.00000	#	c3h,c,o3e,hc
improper_coeff	19	0.00000	0.00000	#	c,c1,hc,oc
improper_coeff	20	0.00000	0.00000	#	c,c1,oc,hc

# AngleAngle Coeffs

improper_coeff	1	aa	-1.31990	-1.31990	0.11840	112.67000	110.77000	110.77000	#	c,c,c,hc
improper_coeff	2	aa	0.27380	-0.48250	0.27380	110.77000	110.77000	107.66000	#	c,c,hc,hc
improper_coeff	3	aa	3.91770	2.59260	0.16890	110.77000	111.27000	108.72800	#	c,c,hc,oc
improper_coeff	4	aa	0.16890	2.59260	3.91770	111.27000	110.77000	108.72800	#	c,c,oc,hc
improper_coeff	5	aa	0.00000	-0.48250	0.00000	110.77000	110.77000	107.66000	#	c,c1,hc,hc
improper_coeff	6	aa	0.00000	-0.48250	0.00000	110.77000	110.77000	107.66000	#	c,c3h,hc,hc
improper_coeff	7	aa	3.91770	2.59260	0.00000	110.77000	111.27000	108.72800	#	c,c3h,hc,o3e
improper_coeff	8	aa	0.00000	2.59260	0.00000	110.77000	111.27000	108.72800	#	c,c3h,hc,oc
improper_coeff	9	aa	-0.31570	-0.31570	-0.31570	107.66000	107.66000	107.66000	#	c,hc,hc,hc
improper_coeff	10	aa	2.42590	2.42590	2.12830	107.66000	108.72800	108.72800	#	c,hc,hc,o3e
improper_coeff	11	aa	2.42590	2.42590	2.12830	107.66000	108.72800	108.72800	#	c,hc,hc,oc
improper_coeff	12	aa	-1.31990	-1.31990	0.11840	112.67000	110.77000	110.77000	#	c1,c,c,hc
improper_coeff	13	aa	-0.83300	-0.83300	-3.57440	112.67000	111.27000	111.27000	#	c1,c,c,oc
improper_coeff	14	aa	3.91770	2.59260	0.16890	110.77000	111.27000	108.72800	#	c1,c,hc,oc
improper_coeff	15	aa	0.16890	2.59260	3.91770	111.27000	110.77000	108.72800	#	c1,c,oc,hc
improper_coeff	16	aa	-1.31990	-1.31990	0.11840	112.67000	110.77000	110.77000	#	c3h,c,c,hc
improper_coeff	17	aa	-0.83300	-0.83300	-3.57440	112.67000	111.27000	111.27000	#	c3h,c,c,o3e
improper_coeff	18	aa	0.16890	2.59260	3.91770	111.27000	110.77000	108.72800	#	c3h,c,o3e,hc
improper_coeff	19	aa	3.91770	2.59260	0.00000	110.77000	111.27000	108.72800	#	c,c1,hc,oc
improper_coeff	20	aa	0.00000	2.59260	3.91770	111.27000	110.77000	108.72800	#	c,c1,oc,hc
