
# Masses

mass		1    12.01115  # c
mass		2    12.01115  # cp
mass		3     1.00797  # h
mass		4     1.00797  # hc
mass		5    15.99940  # o4e
mass		6    15.99940  # oc
mass		7    15.99940  # oh

# Potentials

pair_coeff	 1  1    0.05400    4.01000  # c,c
pair_coeff	 2  2    0.06400    4.01000  # cp,cp
pair_coeff	 3  3    0.02000    2.99500  # h,h
pair_coeff	 4  4    0.02000    2.99500  # hc,hc
pair_coeff	 5  5    0.24000    3.53500  # o4e,o4e
pair_coeff	 6  6    0.24000    3.53500  # oc,oc
pair_coeff	 7  7    0.24000    3.53500  # oh,oh

# Bond Coeffs

bond_coeff	1    1.53000  299.67000 -501.77000  679.81000  # c,c
bond_coeff	2    1.50100  321.90210 -521.82080  572.16280  # c,cp
bond_coeff	3    1.10100  345.00000 -691.89000  844.60000  # c,hc
bond_coeff	4    1.42000  400.39540 -835.19510 1313.01420  # c,o4e
bond_coeff	5    1.42000  400.39540 -835.19510 1313.01420  # c,oc
bond_coeff	6    1.42000  400.39540 -835.19510 1313.01420  # c,oh
bond_coeff	7    1.41700  470.83610 -627.61790 1327.63450  # cp,cp
bond_coeff	8    1.09820  372.82510 -803.45260  894.31730  # cp,hc
bond_coeff	9    0.96000  493.84800    0.00000    0.00000  # h,oh

# Angle Coeffs

angle_coeff	 1  112.67000   39.51600   -7.44300   -9.55830  # c,c,c
angle_coeff	 2  110.77000   41.45300  -10.60400    5.12900  # c,c,hc
angle_coeff	 3  111.27000   54.53810   -8.36420  -13.08380  # c,c,o4e
angle_coeff	 4  111.27000   54.53810   -8.36420  -13.08380  # c,c,oc
angle_coeff	 5  111.27000   54.53810   -8.36420  -13.08380  # c,c,oh
angle_coeff	 6  120.05000   44.71480  -22.73520    0.00000  # c,cp,cp
angle_coeff	 7  104.50000   35.74540  -10.00670   -6.27290  # c,o4e,c
angle_coeff	 8  104.50000   35.74540  -10.00670   -6.27290  # c,oc,c
angle_coeff	 9  109.00000   58.50000    0.00000    0.00000  # c,oh,h
angle_coeff	10  111.00000   44.32340   -9.44540    0.00000  # cp,c,hc
angle_coeff	11  110.50000   46.00000    0.00000    0.00000  # cp,c,oc
angle_coeff	12  118.90000   61.02260  -34.99310    0.00000  # cp,cp,cp
angle_coeff	13  117.94000   35.15580  -12.46820    0.00000  # cp,cp,hc
angle_coeff	14  107.66000   39.64100  -12.92100   -2.43180  # hc,c,hc
angle_coeff	15  108.72800   58.54460  -10.80880  -12.40060  # hc,c,o4e
angle_coeff	16  108.72800   58.54460  -10.80880  -12.40060  # hc,c,oc
angle_coeff	17  108.72800   58.54460  -10.80880  -12.40060  # hc,c,oh

# BondBond Coeffs

angle_coeff	 1 bb    0.00000    1.53000    1.53000  # c,c,c
angle_coeff	 2 bb    3.38720    1.53000    1.10100  # c,c,hc
angle_coeff	 3 bb   11.43180    1.53000    1.42000  # c,c,o4e
angle_coeff	 4 bb   11.43180    1.53000    1.42000  # c,c,oc
angle_coeff	 5 bb   11.43180    1.53000    1.42000  # c,c,oh
angle_coeff	 6 bb   12.06760    1.50100    1.41700  # c,cp,cp
angle_coeff	 7 bb   -7.11310    1.42000    1.42000  # c,o4e,c
angle_coeff	 8 bb   -7.11310    1.42000    1.42000  # c,oc,c
angle_coeff	 9 bb    0.00000    1.42000    0.96000  # c,oh,h
angle_coeff	10 bb    2.91680    1.50100    1.10100  # cp,c,hc
angle_coeff	11 bb    0.00000    1.50100    1.42000  # cp,c,oc
angle_coeff	12 bb   68.28560    1.41700    1.41700  # cp,cp,cp
angle_coeff	13 bb    1.07950    1.41700    1.09820  # cp,cp,hc
angle_coeff	14 bb    5.33160    1.10100    1.10100  # hc,c,hc
angle_coeff	15 bb   23.19790    1.10100    1.42000  # hc,c,o4e
angle_coeff	16 bb   23.19790    1.10100    1.42000  # hc,c,oc
angle_coeff	17 bb   23.19790    1.10100    1.42000  # hc,c,oh

# BondAngle Coeffs

angle_coeff	 1 ba    8.01600    8.01600    1.53000    1.53000  # c,c,c
angle_coeff	 2 ba   20.75400   11.42100    1.53000    1.10100  # c,c,hc
angle_coeff	 3 ba    2.68680   20.40330    1.53000    1.42000  # c,c,o4e
angle_coeff	 4 ba    2.68680   20.40330    1.53000    1.42000  # c,c,oc
angle_coeff	 5 ba    2.68680   20.40330    1.53000    1.42000  # c,c,oh
angle_coeff	 6 ba   47.05790   31.07710    1.50100    1.41700  # c,cp,cp
angle_coeff	 7 ba   -2.81120   -2.81120    1.42000    1.42000  # c,o4e,c
angle_coeff	 8 ba   -2.81120   -2.81120    1.42000    1.42000  # c,oc,c
angle_coeff	 9 ba    0.00000    0.00000    1.42000    0.96000  # c,oh,h
angle_coeff	10 ba   11.77170   26.46080    1.50100    1.10100  # cp,c,hc
angle_coeff	11 ba    0.00000    0.00000    1.50100    1.42000  # cp,c,oc
angle_coeff	12 ba   28.87080   28.87080    1.41700    1.41700  # cp,cp,cp
angle_coeff	13 ba   24.21830   20.00330    1.41700    1.09820  # cp,cp,hc
angle_coeff	14 ba   18.10300   18.10300    1.10100    1.10100  # hc,c,hc
angle_coeff	15 ba    4.61890   55.32700    1.10100    1.42000  # hc,c,o4e
angle_coeff	16 ba    4.61890   55.32700    1.10100    1.42000  # hc,c,oc
angle_coeff	17 ba    4.61890   55.32700    1.10100    1.42000  # hc,c,oh

# Dihedral Coeffs

dihedral_coeff	 1    0.00000    0.00000    0.05140    0.00000   -0.14300    0.00000  # c,c,c,c
dihedral_coeff	 2    0.00000    0.00000    0.03160    0.00000   -0.16810    0.00000  # c,c,c,hc
dihedral_coeff	 3    0.71370    0.00000    0.26600    0.00000   -0.25450    0.00000  # c,c,c,o4e
dihedral_coeff	 4    0.71370    0.00000    0.26600    0.00000   -0.25450    0.00000  # c,c,c,oc
dihedral_coeff	 5    0.71370    0.00000    0.26600    0.00000   -0.25450    0.00000  # c,c,c,oh
dihedral_coeff	 6   -0.52030    0.00000   -0.30280    0.00000   -0.34500    0.00000  # c,c,o4e,c
dihedral_coeff	 7   -0.52030    0.00000   -0.30280    0.00000   -0.34500    0.00000  # c,c,oc,c
dihedral_coeff	 8    0.00000    0.00000    0.00000    0.00000    0.13000  180.00000  # c,c,oh,h
dihedral_coeff	 9    0.00000    0.00000    4.40720    0.00000    0.00000    0.00000  # c,cp,cp,cp
dihedral_coeff	10    0.00000    0.00000    1.55900    0.00000    0.00000    0.00000  # c,cp,cp,hc
dihedral_coeff	11    0.53020    0.00000    0.00000    0.00000   -0.39660    0.00000  # c,o4e,c,hc
dihedral_coeff	12    0.00000    0.00000    0.00000    0.00000    0.13000  180.00000  # c,oc,c,cp
dihedral_coeff	13    0.53020    0.00000    0.00000    0.00000   -0.39660    0.00000  # c,oc,c,hc
dihedral_coeff	14   -0.28010    0.00000   -0.06780    0.00000   -0.01220    0.00000  # cp,cp,c,hc
dihedral_coeff	15    0.00000  180.00000    0.00000    0.00000    0.00000    0.00000  # cp,cp,c,oc
dihedral_coeff	16    8.36670    0.00000    1.19320    0.00000    0.00000    0.00000  # cp,cp,cp,cp
dihedral_coeff	17    0.00000    0.00000    3.96610    0.00000    0.00000    0.00000  # cp,cp,cp,hc
dihedral_coeff	18    0.00000    0.00000    0.00000    0.00000    0.13000  180.00000  # h,oh,c,hc
dihedral_coeff	19   -0.14320    0.00000    0.06170    0.00000   -0.10830    0.00000  # hc,c,c,hc
dihedral_coeff	20    0.00000    0.00000    1.87690    0.00000    0.00000    0.00000  # hc,cp,cp,hc

# MiddleBondTorsion Coeffs

dihedral_coeff	 1 mbt  -17.78700   -7.18770    0.00000    1.53000  # c,c,c,c
dihedral_coeff	 2 mbt  -14.87900   -3.65810   -0.31380    1.53000  # c,c,c,hc
dihedral_coeff	 3 mbt  -21.88420   -7.67640   -0.68680    1.53000  # c,c,c,o4e
dihedral_coeff	 4 mbt  -21.88420   -7.67640   -0.68680    1.53000  # c,c,c,oc
dihedral_coeff	 5 mbt  -21.88420   -7.67640   -0.68680    1.53000  # c,c,c,oh
dihedral_coeff	 6 mbt   -5.92880   -2.70070   -0.31750    1.42000  # c,c,o4e,c
dihedral_coeff	 7 mbt   -5.92880   -2.70070   -0.31750    1.42000  # c,c,oc,c
dihedral_coeff	 8 mbt    0.00000    0.00000    0.00000    1.42000  # c,c,oh,h
dihedral_coeff	 9 mbt    0.00000    9.17920    0.00000    1.41700  # c,cp,cp,cp
dihedral_coeff	10 mbt    0.00000    3.94210    0.00000    1.41700  # c,cp,cp,hc
dihedral_coeff	11 mbt   -6.80070   -4.65460   -1.41010    1.42000  # c,o4e,c,hc
dihedral_coeff	12 mbt    0.00000    0.00000    0.00000    1.42000  # c,oc,c,cp
dihedral_coeff	13 mbt   -6.80070   -4.65460   -1.41010    1.42000  # c,oc,c,hc
dihedral_coeff	14 mbt   -5.56790    1.40830    0.30100    1.50100  # cp,cp,c,hc
dihedral_coeff	15 mbt    0.00000    0.00000    0.00000    1.50100  # cp,cp,c,oc
dihedral_coeff	16 mbt   27.59890   -2.31200    0.00000    1.41700  # cp,cp,cp,cp
dihedral_coeff	17 mbt    0.00000   -1.15210    0.00000    1.41700  # cp,cp,cp,hc
dihedral_coeff	18 mbt    0.00000    0.00000    0.00000    1.42000  # h,oh,c,hc
dihedral_coeff	19 mbt  -14.26100   -0.53220   -0.48640    1.53000  # hc,c,c,hc
dihedral_coeff	20 mbt    0.00000    4.82280    0.00000    1.41700  # hc,cp,cp,hc

# EndBondTorsion Coeffs

dihedral_coeff	 1 ebt   -0.07320    0.00000    0.00000   -0.07320    0.00000    0.00000    1.53000    1.53000  # c,c,c,c
dihedral_coeff	 2 ebt    0.24860    0.24220   -0.09250    0.08140    0.05910    0.22190    1.53000    1.10100  # c,c,c,hc
dihedral_coeff	 3 ebt   -0.31900    0.44110   -0.71740    1.15380    0.84090   -0.91380    1.53000    1.42000  # c,c,c,o4e
dihedral_coeff	 4 ebt   -0.31900    0.44110   -0.71740    1.15380    0.84090   -0.91380    1.53000    1.42000  # c,c,c,oc
dihedral_coeff	 5 ebt   -0.31900    0.44110   -0.71740    1.15380    0.84090   -0.91380    1.53000    1.42000  # c,c,c,oh
dihedral_coeff	 6 ebt   -0.24560    1.05170   -0.77950    0.47410    1.26350    0.55760    1.53000    1.42000  # c,c,o4e,c
dihedral_coeff	 7 ebt   -0.24560    1.05170   -0.77950    0.47410    1.26350    0.55760    1.53000    1.42000  # c,c,oc,c
dihedral_coeff	 8 ebt    0.00000    0.00000    0.00000    0.00000    0.00000    0.00000    1.53000    0.96000  # c,c,oh,h
dihedral_coeff	 9 ebt    0.00000    0.24210    0.00000    0.00000   -0.69180    0.00000    1.50100    1.41700  # c,cp,cp,cp
dihedral_coeff	10 ebt    0.00000   -1.79700    0.00000    0.00000   -0.48790    0.00000    1.50100    1.09820  # c,cp,cp,hc
dihedral_coeff	11 ebt   -0.16200    0.15640   -1.14080   -0.60540    1.33390    0.96480    1.42000    1.10100  # c,o4e,c,hc
dihedral_coeff	12 ebt    0.00000    0.00000    0.00000    0.00000    0.00000    0.00000    1.42000    1.50100  # c,oc,c,cp
dihedral_coeff	13 ebt   -0.16200    0.15640   -1.14080   -0.60540    1.33390    0.96480    1.42000    1.10100  # c,oc,c,hc
dihedral_coeff	14 ebt    1.39970    0.77560    0.00000   -0.58350    1.12200    0.39780    1.41700    1.10100  # cp,cp,c,hc
dihedral_coeff	15 ebt    0.00000    0.00000    0.00000    0.00000    0.00000    0.00000    1.41700    1.42000  # cp,cp,c,oc
dihedral_coeff	16 ebt   -0.11850    6.32040    0.00000   -0.11850    6.32040    0.00000    1.41700    1.41700  # cp,cp,cp,cp
dihedral_coeff	17 ebt    0.00000   -0.46690    0.00000    0.00000   -6.89580    0.00000    1.41700    1.09820  # cp,cp,cp,hc
dihedral_coeff	18 ebt    0.00000    0.00000    0.00000    0.00000    0.00000    0.00000    0.96000    1.10100  # h,oh,c,hc
dihedral_coeff	19 ebt    0.21300    0.31200    0.07770    0.21300    0.31200    0.07770    1.10100    1.10100  # hc,c,c,hc
dihedral_coeff	20 ebt    0.00000   -0.68900    0.00000    0.00000   -0.68900    0.00000    1.09820    1.09820  # hc,cp,cp,hc

# AngleTorsion Coeffs

dihedral_coeff	 1 at    0.38860   -0.31390    0.13890    0.38860   -0.31390    0.13890  112.67000  112.67000  # c,c,c,c
dihedral_coeff	 2 at   -0.24540    0.00000   -0.11360    0.31130    0.45160   -0.19880  112.67000  110.77000  # c,c,c,hc
dihedral_coeff	 3 at    0.56230   -0.30410   -0.40150    0.96720   -0.75660   -1.23310  112.67000  111.27000  # c,c,c,o4e
dihedral_coeff	 4 at    0.56230   -0.30410   -0.40150    0.96720   -0.75660   -1.23310  112.67000  111.27000  # c,c,c,oc
dihedral_coeff	 5 at    0.56230   -0.30410   -0.40150    0.96720   -0.75660   -1.23310  112.67000  111.27000  # c,c,c,oh
dihedral_coeff	 6 at   -2.74660    1.48770   -0.89550    0.56760    0.94500    0.07030  111.27000  104.50000  # c,c,o4e,c
dihedral_coeff	 7 at   -2.74660    1.48770   -0.89550    0.56760    0.94500    0.07030  111.27000  104.50000  # c,c,oc,c
dihedral_coeff	 8 at    0.00000    0.00000    0.00000    0.00000    0.00000    0.00000  111.27000  109.00000  # c,c,oh,h
dihedral_coeff	 9 at    0.00000   -4.46830    0.00000    0.00000    3.89870    0.00000  120.05000  118.90000  # c,cp,cp,cp
dihedral_coeff	10 at    0.00000   -0.12420    0.00000    0.00000    3.46010    0.00000  120.05000  117.94000  # c,cp,cp,hc
dihedral_coeff	11 at   -0.77770    0.43400   -0.66530   -1.82340    1.63930    0.51440  104.50000  108.72800  # c,o4e,c,hc
dihedral_coeff	12 at    0.00000    0.00000    0.00000    0.00000    0.00000    0.00000  104.50000  110.50000  # c,oc,c,cp
dihedral_coeff	13 at   -0.77770    0.43400   -0.66530   -1.82340    1.63930    0.51440  104.50000  108.72800  # c,oc,c,hc
dihedral_coeff	14 at    4.62660    0.16320    0.04610    0.22510    0.65480    0.12370  120.05000  111.00000  # cp,cp,c,hc
dihedral_coeff	15 at    0.00000    0.00000    0.00000    0.00000    0.00000    0.00000  120.05000  110.50000  # cp,cp,c,oc
dihedral_coeff	16 at    1.97670    1.02390    0.00000    1.97670    1.02390    0.00000  118.90000  118.90000  # cp,cp,cp,cp
dihedral_coeff	17 at    0.00000    2.71470    0.00000    0.00000    2.50140    0.00000  118.90000  117.94000  # cp,cp,cp,hc
dihedral_coeff	18 at    0.00000    0.00000    0.00000    0.00000    0.00000    0.00000  109.00000  108.72800  # h,oh,c,hc
dihedral_coeff	19 at   -0.80850    0.55690   -0.24660   -0.80850    0.55690   -0.24660  110.77000  110.77000  # hc,c,c,hc
dihedral_coeff	20 at    0.00000    2.45010    0.00000    0.00000    2.45010    0.00000  117.94000  117.94000  # hc,cp,cp,hc

# AngleAngleTorsion Coeffs

dihedral_coeff	 1 aat  -22.04500  112.67000  112.67000  # c,c,c,c
dihedral_coeff	 2 aat  -16.16400  112.67000  110.77000  # c,c,c,hc
dihedral_coeff	 3 aat  -29.04200  112.67000  111.27000  # c,c,c,o4e
dihedral_coeff	 4 aat  -29.04200  112.67000  111.27000  # c,c,c,oc
dihedral_coeff	 5 aat  -29.04200  112.67000  111.27000  # c,c,c,oh
dihedral_coeff	 6 aat  -19.00590  111.27000  104.50000  # c,c,o4e,c
dihedral_coeff	 7 aat  -19.00590  111.27000  104.50000  # c,c,oc,c
dihedral_coeff	 8 aat    0.00000  111.27000  109.00000  # c,c,oh,h
dihedral_coeff	 9 aat  -14.40970  120.05000  118.90000  # c,cp,cp,cp
dihedral_coeff	10 aat    4.44440  120.05000  117.94000  # c,cp,cp,hc
dihedral_coeff	11 aat  -16.44380  104.50000  108.72800  # c,o4e,c,hc
dihedral_coeff	12 aat    0.00000  104.50000  110.50000  # c,oc,c,cp
dihedral_coeff	13 aat  -16.44380  104.50000  108.72800  # c,oc,c,hc
dihedral_coeff	14 aat   -5.88880  120.05000  111.00000  # cp,cp,c,hc
dihedral_coeff	15 aat    0.00000  120.05000  110.50000  # cp,cp,c,oc
dihedral_coeff	16 aat    0.00000  118.90000  118.90000  # cp,cp,cp,cp
dihedral_coeff	17 aat   -4.81410  118.90000  117.94000  # cp,cp,cp,hc
dihedral_coeff	18 aat    0.00000  109.00000  108.72800  # h,oh,c,hc
dihedral_coeff	19 aat  -12.56400  110.77000  110.77000  # hc,c,c,hc
dihedral_coeff	20 aat    0.35980  117.94000  117.94000  # hc,cp,cp,hc

# BondBond13 Coeffs

dihedral_coeff	 1 bb13    0.00000    1.53000    1.53000  # c,c,c,c
dihedral_coeff	 2 bb13    0.00000    1.53000    1.10100  # c,c,c,hc
dihedral_coeff	 3 bb13    0.00000    1.53000    1.42000  # c,c,c,o4e
dihedral_coeff	 4 bb13    0.00000    1.53000    1.42000  # c,c,c,oc
dihedral_coeff	 5 bb13    0.00000    1.53000    1.42000  # c,c,c,oh
dihedral_coeff	 6 bb13    0.00000    1.53000    1.42000  # c,c,o4e,c
dihedral_coeff	 7 bb13    0.00000    1.53000    1.42000  # c,c,oc,c
dihedral_coeff	 8 bb13    0.00000    1.53000    0.96000  # c,c,oh,h
dihedral_coeff	 9 bb13    2.50850    1.50100    1.41700  # c,cp,cp,cp
dihedral_coeff	10 bb13    0.87430    1.50100    1.09820  # c,cp,cp,hc
dihedral_coeff	11 bb13    0.00000    1.42000    1.10100  # c,o4e,c,hc
dihedral_coeff	12 bb13    0.00000    1.42000    1.50100  # c,oc,c,cp
dihedral_coeff	13 bb13    0.00000    1.42000    1.10100  # c,oc,c,hc
dihedral_coeff	14 bb13   -3.48260    1.41700    1.10100  # cp,cp,c,hc
dihedral_coeff	15 bb13    0.00000    1.41700    1.42000  # cp,cp,c,oc
dihedral_coeff	16 bb13   53.00000    1.41700    1.41700  # cp,cp,cp,cp
dihedral_coeff	17 bb13   -6.27410    1.41700    1.09820  # cp,cp,cp,hc
dihedral_coeff	18 bb13    0.00000    0.96000    1.10100  # h,oh,c,hc
dihedral_coeff	19 bb13    0.00000    1.10100    1.10100  # hc,c,c,hc
dihedral_coeff	20 bb13   -1.70770    1.09820    1.09820  # hc,cp,cp,hc

# Improper Coeffs

improper_coeff	 1    0.00000    0.00000  # c,c,c,c
improper_coeff	 2    0.00000    0.00000  # c,c,c,hc
improper_coeff	 3    0.00000    0.00000  # c,c,hc,hc
improper_coeff	 4    0.00000    0.00000  # c,c,hc,o4e
improper_coeff	 5    0.00000    0.00000  # c,c,hc,oc
improper_coeff	 6    0.00000    0.00000  # c,c,o4e,hc
improper_coeff	 7    0.00000    0.00000  # c,c,oc,hc
improper_coeff	 8    0.00000    0.00000  # c,c,oh,hc
improper_coeff	 9    0.00000    0.00000  # c,cp,hc,hc
improper_coeff	10    0.00000    0.00000  # c,cp,hc,oc
improper_coeff	11    0.00000    0.00000  # c,hc,hc,hc
improper_coeff	12    0.00000    0.00000  # c,hc,hc,o4e
improper_coeff	13    0.00000    0.00000  # c,hc,hc,oc
improper_coeff	14    0.00000    0.00000  # c,hc,hc,oh
improper_coeff	15    7.81530    0.00000  # cp,c,cp,cp
improper_coeff	16    4.89120    0.00000  # cp,cp,cp,hc

# AngleAngle Coeffs

improper_coeff	 1 aa   -0.17290   -0.17290   -0.17290  112.67000  112.67000  112.67000  # c,c,c,c
improper_coeff	 2 aa   -1.31990   -1.31990    0.11840  112.67000  110.77000  110.77000  # c,c,c,hc
improper_coeff	 3 aa    0.27380   -0.48250    0.27380  110.77000  110.77000  107.66000  # c,c,hc,hc
improper_coeff	 4 aa    3.91770    2.59260    0.16890  110.77000  111.27000  108.72800  # c,c,hc,o4e
improper_coeff	 5 aa    3.91770    2.59260    0.16890  110.77000  111.27000  108.72800  # c,c,hc,oc
improper_coeff	 6 aa    0.16890    2.59260    3.91770  111.27000  110.77000  108.72800  # c,c,o4e,hc
improper_coeff	 7 aa    0.16890    2.59260    3.91770  111.27000  110.77000  108.72800  # c,c,oc,hc
improper_coeff	 8 aa    0.16890    2.59260    3.91770  111.27000  110.77000  108.72800  # c,c,oh,hc
improper_coeff	 9 aa    0.00000    3.01180    0.00000  111.00000  111.00000  107.66000  # c,cp,hc,hc
improper_coeff	10 aa    0.00000    0.00000    0.00000  111.00000  110.50000  108.72800  # c,cp,hc,oc
improper_coeff	11 aa   -0.31570   -0.31570   -0.31570  107.66000  107.66000  107.66000  # c,hc,hc,hc
improper_coeff	12 aa    2.42590    2.42590    2.12830  107.66000  108.72800  108.72800  # c,hc,hc,o4e
improper_coeff	13 aa    2.42590    2.42590    2.12830  107.66000  108.72800  108.72800  # c,hc,hc,oc
improper_coeff	14 aa    2.42590    2.42590    2.12830  107.66000  108.72800  108.72800  # c,hc,hc,oh
improper_coeff	15 aa    0.00000    0.00000    0.00000  120.05000  120.05000  118.90000  # cp,c,cp,cp
improper_coeff	16 aa    0.00000    0.00000    0.00000  118.90000  117.94000  117.94000  # cp,cp,cp,hc
